(set-option :produce-models true); benchmark generated from python API
(set-info :status unknown)
(declare-fun l_1_0_9 () Real)
(declare-fun l_1_0_8 () Real)
(declare-fun l_1_0_7 () Real)
(declare-fun l_1_0_6 () Real)
(declare-fun l_1_0_5 () Real)
(declare-fun l_1_0_4 () Real)
(declare-fun l_1_0_3 () Real)
(declare-fun l_1_0_2 () Real)
(declare-fun l_1_0_1 () Real)
(declare-fun _a_0_ () Real)
(declare-fun l_1_0_11 () Real)
(declare-fun l_1_0_10 () Real)
(declare-fun _a_1_ () Real)
(declare-fun l_1_0_14 () Real)
(declare-fun l_1_0_13 () Real)
(declare-fun l_1_0_12 () Real)
(declare-fun _a_2_ () Real)
(declare-fun l_1_1_9 () Real)
(declare-fun l_1_1_8 () Real)
(declare-fun l_1_1_7 () Real)
(declare-fun l_1_1_6 () Real)
(declare-fun l_1_1_5 () Real)
(declare-fun l_1_1_15 () Real)
(declare-fun l_1_1_14 () Real)
(declare-fun l_1_1_13 () Real)
(declare-fun l_1_1_11 () Real)
(declare-fun l_1_1_1 () Real)
(declare-fun l_1_1_4 () Real)
(declare-fun l_1_1_3 () Real)
(declare-fun l_1_1_2 () Real)
(declare-fun l_1_1_12 () Real)
(declare-fun l_1_1_10 () Real)
(declare-fun l_1_1_18 () Real)
(declare-fun l_1_1_17 () Real)
(declare-fun l_1_1_16 () Real)
(declare-fun l_1_1_20 () Real)
(declare-fun l_1_1_19 () Real)
(declare-fun l_1_2_8 () Real)
(declare-fun l_1_2_7 () Real)
(declare-fun l_1_2_5 () Real)
(declare-fun l_1_2_4 () Real)
(declare-fun l_1_2_3 () Real)
(declare-fun l_1_2_15 () Real)
(declare-fun l_1_2_14 () Real)
(declare-fun l_1_2_13 () Real)
(declare-fun l_1_2_12 () Real)
(declare-fun l_1_2_1 () Real)
(declare-fun l_1_2_9 () Real)
(declare-fun l_1_2_6 () Real)
(declare-fun l_1_2_2 () Real)
(declare-fun l_1_2_11 () Real)
(declare-fun l_1_2_10 () Real)
(declare-fun l_1_2_17 () Real)
(declare-fun l_1_2_16 () Real)
(declare-fun l_1_2_20 () Real)
(declare-fun l_1_2_19 () Real)
(declare-fun l_1_2_18 () Real)
(assert
 (let ((?x43 (* l_1_0_9 l_1_0_9)))
 (let ((?x50 (- (- (- _a_0_ l_1_0_1) (* 1.0 l_1_0_2)) (* 1.0 l_1_0_3))))
 (let ((?x44 (- (- (- (- ?x50 l_1_0_4) (* 1.0 l_1_0_5)) (* 1.0 l_1_0_6)) l_1_0_7)))
 (= (- (- ?x44 l_1_0_8) ?x43) 0.0)))))
(assert
 (let ((?x615 (* 2.0 l_1_0_3)))
 (let ((?x993 (+ (- (- _a_1_ (* l_1_0_10 l_1_0_10)) (* l_1_0_11 l_1_0_11)) l_1_0_2)))
 (= (+ (+ (+ ?x993 ?x615) l_1_0_5) l_1_0_6) 0.0))))
(assert
 (let ((?x615 (* 2.0 l_1_0_3)))
 (let ((?x928 (* l_1_0_14 l_1_0_14)))
 (let ((?x870 (- (- (- _a_2_ (* l_1_0_12 l_1_0_12)) (* l_1_0_13 l_1_0_13)) ?x928)))
 (= (+ (+ (+ (+ ?x870 l_1_0_2) ?x615) l_1_0_5) l_1_0_6) 0.0)))))
(assert
 (= (- l_1_0_3) 0.0))
(assert
 (= (* (- 2.0) l_1_0_3) 0.0))
(assert
 (= (- l_1_0_3) 0.0))
(assert
 (= (* (* (- 2.0) l_1_0_10) l_1_0_9) 0.0))
(assert
 (= (* (* (- 2.0) l_1_0_12) l_1_0_9) 0.0))
(assert
 (let ((?x876 (- (* (* (- 2.0) l_1_0_10) l_1_0_12) (* (* 2.0 l_1_0_11) l_1_0_13))))
 (= ?x876 0.0)))
(assert
 (>= l_1_0_1 0.0))
(assert
 (>= l_1_0_2 0.0))
(assert
 (>= l_1_0_3 0.0))
(assert
 (>= l_1_0_4 0.0))
(assert
 (>= l_1_0_5 0.0))
(assert
 (>= l_1_0_6 0.0))
(assert
 (>= l_1_0_7 0.0))
(assert
 (>= l_1_0_8 0.0))
(assert
 (>= l_1_0_9 0.0))
(assert
 (>= l_1_0_11 0.0))
(assert
 (>= l_1_0_14 0.0))
(assert
 (let ((?x731 (* 3.0 l_1_1_8)))
 (let ((?x729 (* 3.0 l_1_1_7)))
 (let ((?x727 (* 9.0 l_1_1_6)))
 (let ((?x723 (* l_1_1_15 l_1_1_15)))
 (let ((?x719 (* 3.0 l_1_1_11)))
 (let ((?x790 (* _a_0_ l_1_1_2)))
 (let ((?x680 (+ (- (- (* (- _a_0_) l_1_1_10) (* _a_0_ l_1_1_12)) ?x790) (* (* 3.0 _a_0_) l_1_1_3))))
 (let ((?x721 (- (+ (- (+ ?x680 (* (* 3.0 _a_0_) l_1_1_4)) l_1_1_1) ?x719) l_1_1_13)))
 (let ((?x732 (+ (+ (- (- (- (- ?x721 l_1_1_14) ?x723) l_1_1_5) ?x727) ?x729) ?x731)))
 (= (+ (- ?x732 (* (* l_1_1_9 _a_0_) _a_0_)) 1.0) 0.0)))))))))))
(assert
 (= (+ (* (* (- 2.0) l_1_1_15) l_1_1_18) 1.0) 0.0))
(assert
 (let ((?x594 (* 6.0 l_1_1_6)))
 (let ((?x527 (* l_1_1_17 l_1_1_17)))
 (let ((?x617 (* l_1_1_16 l_1_1_16)))
 (let ((?x489 (* _a_1_ l_1_1_2)))
 (let ((?x376 (* _a_1_ l_1_1_12)))
 (let ((?x374 (* _a_1_ l_1_1_10)))
 (let ((?x27 (- (- (- (* (* (* (- 2.0) _a_0_) _a_1_) l_1_1_9) ?x374) ?x376) ?x489)))
 (let ((?x490 (- (- (- (- ?x27 l_1_1_11) ?x617) ?x527) (* l_1_1_3 (- _a_0_ (* 3.0 _a_1_))))))
 (let ((?x475 (- (+ (- ?x490 (* l_1_1_4 (- _a_0_ (* 3.0 _a_1_)))) ?x594) l_1_1_7)))
 (= (- (- ?x475 l_1_1_8) (/ 1.0 5.0)) 0.0)))))))))))
(assert
 (let ((?x594 (* 6.0 l_1_1_6)))
 (let ((?x314 (* l_1_1_20 l_1_1_20)))
 (let ((?x311 (* l_1_1_19 l_1_1_19)))
 (let ((?x309 (* l_1_1_18 l_1_1_18)))
 (let ((?x306 (* _a_2_ l_1_1_2)))
 (let ((?x304 (* _a_2_ l_1_1_12)))
 (let ((?x354 (* _a_2_ l_1_1_10)))
 (let ((?x307 (- (- (- (* (* (* (- 2.0) _a_0_) _a_2_) l_1_1_9) ?x354) ?x304) ?x306)))
 (let ((?x320 (- (- (- (- (- ?x307 l_1_1_11) ?x309) ?x311) ?x314) (* l_1_1_3 (- _a_0_ (* 3.0 _a_2_))))))
 (let ((?x283 (- (+ (- ?x320 (* l_1_1_4 (- _a_0_ (* 3.0 _a_2_)))) ?x594) l_1_1_7)))
 (= (- ?x283 l_1_1_8) 0.0))))))))))))
(assert
 (let ((?x178 (- (- (- (* (- _a_1_) l_1_1_3) (* _a_1_ l_1_1_4)) l_1_1_6) (* (* l_1_1_9 _a_1_) _a_1_))))
 (= ?x178 0.0)))
(assert
 (let ((?x133 (* 2.0 l_1_1_6)))
 (let ((?x130 (- (* (* (* (- 2.0) _a_1_) _a_2_) l_1_1_9) (* l_1_1_3 (+ _a_1_ _a_2_)))))
 (= (- (- ?x130 (* l_1_1_4 (+ _a_1_ _a_2_))) ?x133) 0.0))))
(assert
 (let ((?x577 (- (- (- (* (- _a_2_) l_1_1_3) (* _a_2_ l_1_1_4)) l_1_1_6) (* (* l_1_1_9 _a_2_) _a_2_))))
 (= ?x577 0.0)))
(assert
 (= (* (* (- 2.0) l_1_1_15) l_1_1_16) 0.0))
(assert
 (let ((?x679 (- (* (* (- 2.0) l_1_1_16) l_1_1_18) (* (* 2.0 l_1_1_17) l_1_1_19))))
 (= ?x679 0.0)))
(assert
 (>= l_1_1_1 0.0))
(assert
 (>= l_1_1_2 0.0))
(assert
 (>= l_1_1_3 0.0))
(assert
 (>= l_1_1_4 0.0))
(assert
 (>= l_1_1_5 0.0))
(assert
 (>= l_1_1_6 0.0))
(assert
 (>= l_1_1_7 0.0))
(assert
 (>= l_1_1_8 0.0))
(assert
 (>= l_1_1_9 0.0))
(assert
 (>= l_1_1_10 0.0))
(assert
 (>= l_1_1_11 0.0))
(assert
 (>= l_1_1_12 0.0))
(assert
 (>= l_1_1_13 0.0))
(assert
 (>= l_1_1_14 0.0))
(assert
 (>= l_1_1_15 0.0))
(assert
 (>= l_1_1_17 0.0))
(assert
 (>= l_1_1_20 0.0))
(assert
 (let ((?x642 (* 9.0 l_1_2_5)))
 (let ((?x640 (* 3.0 l_1_2_4)))
 (let ((?x961 (* l_1_2_15 l_1_2_15)))
 (let ((?x964 (* 3.0 l_1_2_13)))
 (let ((?x959 (* 3.0 l_1_2_12)))
 (let ((?x924 (* _a_0_ l_1_2_6)))
 (let ((?x370 (* _a_0_ l_1_2_2)))
 (let ((?x952 (- (- (* (- _a_0_) l_1_2_10) (* (* 3.0 _a_0_) l_1_2_11)) ?x370)))
 (let ((?x915 (+ (+ (- (- ?x952 ?x924) (* (* 3.0 _a_0_) l_1_2_9)) _a_0_) (* 1.0 _a_1_))))
 (let ((?x960 (- (- (- (- (+ ?x915 (* 1.0 _a_2_)) l_1_2_1) ?x959) ?x964) l_1_2_14)))
 (let ((?x647 (- (- (- (- ?x960 ?x961) (* (* l_1_2_3 _a_0_) _a_0_)) ?x640) ?x642)))
 (= (- (- ?x647 l_1_2_7) l_1_2_8) 0.0)))))))))))))
(assert
 (let ((?x141 (- (+ (+ (* _a_1_ l_1_2_11) (* _a_1_ l_1_2_9)) _a_1_) (* (* l_1_2_3 _a_1_) _a_1_))))
 (= (- ?x141 l_1_2_5) 0.0)))
(assert
 (let ((?x532 (* 2.0 _a_1_)))
 (= ?x532 0.0)))
(assert
 (let ((?x607 (* 6.0 l_1_2_5)))
 (let ((?x478 (* l_1_2_17 l_1_2_17)))
 (let ((?x480 (* l_1_2_16 l_1_2_16)))
 (let ((?x532 (* 2.0 _a_1_)))
 (let ((?x212 (* _a_1_ l_1_2_6)))
 (let ((?x542 (* _a_1_ l_1_2_2)))
 (let ((?x540 (* _a_1_ l_1_2_10)))
 (let ((?x826 (- (- (- (* (* (* (- 2.0) _a_0_) _a_1_) l_1_2_3) ?x540) ?x542) ?x212)))
 (let ((?x483 (+ (- (- ?x826 ?x532) (* l_1_2_11 (+ (- _a_0_) (* 3.0 _a_1_)))) l_1_2_12)))
 (let ((?x453 (- (+ (+ (- (- (+ ?x483 l_1_2_13) ?x480) ?x478) l_1_2_4) ?x607) (* l_1_2_9 (+ (- _a_0_) (* 3.0 _a_1_))))))
 (= ?x453 0.0))))))))))))
(assert
 (let ((?x607 (* 6.0 l_1_2_5)))
 (let ((?x362 (* l_1_2_20 l_1_2_20)))
 (let ((?x365 (* l_1_2_19 l_1_2_19)))
 (let ((?x359 (* l_1_2_18 l_1_2_18)))
 (let ((?x895 (* 2.0 _a_2_)))
 (let ((?x894 (* _a_2_ l_1_2_6)))
 (let ((?x884 (* _a_2_ l_1_2_2)))
 (let ((?x882 (* _a_2_ l_1_2_10)))
 (let ((?x889 (- (- (+ (* (* (* (- 2.0) _a_0_) _a_2_) l_1_2_3) _a_1_) ?x882) ?x884)))
 (let ((?x892 (- (+ (- ?x889 ?x894) ?x895) (* l_1_2_11 (+ (- _a_0_) (* 3.0 _a_2_))))))
 (let ((?x415 (+ (- (- (- (+ (+ ?x892 l_1_2_12) l_1_2_13) ?x359) ?x365) ?x362) l_1_2_4)))
 (= (- (+ ?x415 ?x607) (* l_1_2_9 (+ (- _a_0_) (* 3.0 _a_2_)))) 0.0)))))))))))))
(assert
 (= (- (* (- 2.0) _a_1_) (* (* 2.0 l_1_2_15) l_1_2_18)) 0.0))
(assert
 (let ((?x888 (* 2.0 l_1_2_5)))
 (let ((?x887 (- (+ (* (* (* (- 2.0) _a_1_) _a_2_) l_1_2_3) (* 4.0 _a_2_)) (* l_1_2_11 (- (- _a_1_) _a_2_)))))
 (= (- (- ?x887 ?x888) (* l_1_2_9 (- (- _a_1_) _a_2_))) 0.0))))
(assert
 (let ((?x340 (* 4.0 _a_2_)))
 (= ?x340 0.0)))
(assert
 (let ((?x921 (- (- (* 4.0 _a_2_) (* (* 2.0 l_1_2_16) l_1_2_18)) (* (* 2.0 l_1_2_17) l_1_2_19))))
 (= ?x921 0.0)))
(assert
 (let ((?x1011 (- (+ (+ (* _a_2_ l_1_2_11) (* _a_2_ l_1_2_9)) _a_2_) (* (* l_1_2_3 _a_2_) _a_2_))))
 (= (- ?x1011 l_1_2_5) 0.0)))
(assert
 (= (* (* (- 2.0) l_1_2_15) l_1_2_16) 0.0))
(assert
 (>= l_1_2_1 0.0))
(assert
 (>= l_1_2_2 0.0))
(assert
 (>= l_1_2_3 0.0))
(assert
 (>= l_1_2_4 0.0))
(assert
 (>= l_1_2_5 0.0))
(assert
 (>= l_1_2_6 0.0))
(assert
 (>= l_1_2_7 0.0))
(assert
 (>= l_1_2_8 0.0))
(assert
 (>= l_1_2_9 0.0))
(assert
 (>= l_1_2_10 0.0))
(assert
 (>= l_1_2_11 0.0))
(assert
 (>= l_1_2_12 0.0))
(assert
 (>= l_1_2_13 0.0))
(assert
 (>= l_1_2_14 0.0))
(assert
 (>= l_1_2_15 0.0))
(assert
 (>= l_1_2_17 0.0))
(assert
 (>= l_1_2_20 0.0))
(check-sat)
(get-model)